\* SupermarketAllocation *\
Maximize
OBJ: - 121593306.165 has_supermarket_6025010101
 - 311767370.682 has_supermarket_6025010102
 - 205117836.004 has_supermarket_6025010200
 - 328481714.585 has_supermarket_6025010300
 - 323529848.101 has_supermarket_6025010400
 - 14108020.6493 has_supermarket_6025010500
 - 819050853.778 has_supermarket_6025010600
 - 297077472.004 has_supermarket_6025010700
 - 623653951.327 has_supermarket_6025010800
 - 134048590.069 has_supermarket_6025010900
 - 748463694.069 has_supermarket_6025011000
 - 206174.584807 has_supermarket_6025011100
 - 879778748.23 has_supermarket_6025011201
 - 319191650.714 has_supermarket_6025011202
 - 760496.520291 has_supermarket_6025011300
 - 406785958.553 has_supermarket_6025011400
 - 495015130.165 has_supermarket_6025011500
 - 208453981.036 has_supermarket_6025011600
 - 194409048.101 has_supermarket_6025011700
 - 2112603299.71 has_supermarket_6025011801
 - 17539884.3913 has_supermarket_6025011802
 - 2524064082.58 has_supermarket_6025011803
 - 186679.746098 has_supermarket_6025011900
 - 242391752.101 has_supermarket_6025012001
 - 34692860.0042 has_supermarket_6025012002
 - 705855195.875 has_supermarket_6025012100
 - 68424916.6493 has_supermarket_6025012200
 - 6385402.93965 has_supermarket_6025012301
 - 325691880.359 has_supermarket_6025012302
 - 105307319.875 has_supermarket_6025012400
 - 75706278.2945 has_supermarket_6025940000
 + 0.128742909715 supermarkets_6025010101
 + 0.506353310644 supermarkets_6025010102
 + 0.207409175175 supermarkets_6025010200
 + 0.0449006668327 supermarkets_6025010300
 + 0.878351456794 supermarkets_6025010400
 + 0.37584862068 supermarkets_6025010500
 + 0.250934119144 supermarkets_6025010600
 + 0.404295121884 supermarkets_6025010700
 + 0.0565665725907 supermarkets_6025010800
 + 0.474882820066 supermarkets_6025010900
 + 0.491666666667 supermarkets_6025011000
 + 0.176765584793 supermarkets_6025011100
 + 0.285485598074 supermarkets_6025011201
 + 0.503902354666 supermarkets_6025011202
 + 0.571313120832 supermarkets_6025011300
 + 0.526553291276 supermarkets_6025011400
 + 0.588525497358 supermarkets_6025011500
 + 0.522134556321 supermarkets_6025011600
 + 0.221123792922 supermarkets_6025011700
 + 0.14765232008 supermarkets_6025011801
 + 0.381275006226 supermarkets_6025011802
 + 0.202845936748 supermarkets_6025011803
 + 0.551413768296 supermarkets_6025011900
 + 0.411234678066 supermarkets_6025012001
 + 0.4860060596 supermarkets_6025012002
 + 0.691915068758 supermarkets_6025012100
 + 0.598505506212 supermarkets_6025012200
 + 0.20444225395 supermarkets_6025012301
 + 0.360936125176 supermarkets_6025012302
 + 0.0523598544589 supermarkets_6025012400
 + 0.16850232423 supermarkets_6025940000
Subject To
AdjacencyLimit_6025010101_6025010200: supermarkets_6025010101
 + supermarkets_6025010200 <= 6
AdjacencyLimit_6025010101_6025010300: supermarkets_6025010101
 + supermarkets_6025010300 <= 6
AdjacencyLimit_6025010101_6025012400: supermarkets_6025010101
 + supermarkets_6025012400 <= 6
AdjacencyLimit_6025010102_6025010101: supermarkets_6025010101
 + supermarkets_6025010102 <= 6
AdjacencyLimit_6025010102_6025010200: supermarkets_6025010102
 + supermarkets_6025010200 <= 6
AdjacencyLimit_6025010102_6025012302: supermarkets_6025010102
 + supermarkets_6025012302 <= 6
AdjacencyLimit_6025010102_6025012400: supermarkets_6025010102
 + supermarkets_6025012400 <= 6
AdjacencyLimit_6025010200_6025010300: supermarkets_6025010200
 + supermarkets_6025010300 <= 6
AdjacencyLimit_6025010200_6025012301: supermarkets_6025010200
 + supermarkets_6025012301 <= 6
AdjacencyLimit_6025010300_6025010800: supermarkets_6025010300
 + supermarkets_6025010800 <= 6
AdjacencyLimit_6025010300_6025012301: supermarkets_6025010300
 + supermarkets_6025012301 <= 6
AdjacencyLimit_6025010500_6025010300: supermarkets_6025010300
 + supermarkets_6025010500 <= 6
AdjacencyLimit_6025010600_6025010300: supermarkets_6025010300
 + supermarkets_6025010600 <= 6
AdjacencyLimit_6025010600_6025010500: supermarkets_6025010500
 + supermarkets_6025010600 <= 6
AdjacencyLimit_6025010600_6025010700: supermarkets_6025010600
 + supermarkets_6025010700 <= 6
AdjacencyLimit_6025010700_6025010300: supermarkets_6025010300
 + supermarkets_6025010700 <= 6
AdjacencyLimit_6025010800_6025010900: supermarkets_6025010800
 + supermarkets_6025010900 <= 6
AdjacencyLimit_6025011100_6025011801: supermarkets_6025011100
 + supermarkets_6025011801 <= 6
AdjacencyLimit_6025011100_6025012301: supermarkets_6025011100
 + supermarkets_6025012301 <= 6
AdjacencyLimit_6025011201_6025011100: supermarkets_6025011100
 + supermarkets_6025011201 <= 6
AdjacencyLimit_6025011201_6025011202: supermarkets_6025011201
 + supermarkets_6025011202 <= 6
AdjacencyLimit_6025011201_6025011400: supermarkets_6025011201
 + supermarkets_6025011400 <= 6
AdjacencyLimit_6025011201_6025011500: supermarkets_6025011201
 + supermarkets_6025011500 <= 6
AdjacencyLimit_6025011201_6025011801: supermarkets_6025011201
 + supermarkets_6025011801 <= 6
AdjacencyLimit_6025011201_6025011802: supermarkets_6025011201
 + supermarkets_6025011802 <= 6
AdjacencyLimit_6025011202_6025011600: supermarkets_6025011202
 + supermarkets_6025011600 <= 6
AdjacencyLimit_6025011202_6025011801: supermarkets_6025011202
 + supermarkets_6025011801 <= 6
AdjacencyLimit_6025011202_6025011802: supermarkets_6025011202
 + supermarkets_6025011802 <= 6
AdjacencyLimit_6025011400_6025011600: supermarkets_6025011400
 + supermarkets_6025011600 <= 6
AdjacencyLimit_6025011400_6025011700: supermarkets_6025011400
 + supermarkets_6025011700 <= 6
AdjacencyLimit_6025011500_6025011202: supermarkets_6025011202
 + supermarkets_6025011500 <= 6
AdjacencyLimit_6025011500_6025011400: supermarkets_6025011400
 + supermarkets_6025011500 <= 6
AdjacencyLimit_6025011500_6025011600: supermarkets_6025011500
 + supermarkets_6025011600 <= 6
AdjacencyLimit_6025011500_6025011802: supermarkets_6025011500
 + supermarkets_6025011802 <= 6
AdjacencyLimit_6025011600_6025011700: supermarkets_6025011600
 + supermarkets_6025011700 <= 6
AdjacencyLimit_6025011600_6025011802: supermarkets_6025011600
 + supermarkets_6025011802 <= 6
AdjacencyLimit_6025011700_6025011802: supermarkets_6025011700
 + supermarkets_6025011802 <= 6
AdjacencyLimit_6025011801_6025011802: supermarkets_6025011801
 + supermarkets_6025011802 <= 6
AdjacencyLimit_6025011803_6025011100: supermarkets_6025011100
 + supermarkets_6025011803 <= 6
AdjacencyLimit_6025011803_6025011700: supermarkets_6025011700
 + supermarkets_6025011803 <= 6
AdjacencyLimit_6025011803_6025011801: supermarkets_6025011801
 + supermarkets_6025011803 <= 6
AdjacencyLimit_6025011803_6025011802: supermarkets_6025011802
 + supermarkets_6025011803 <= 6
AdjacencyLimit_6025012302_6025010200: supermarkets_6025010200
 + supermarkets_6025012302 <= 6
AdjacencyLimit_6025012302_6025012301: supermarkets_6025012301
 + supermarkets_6025012302 <= 6
AdjacencyLimit_6025012302_6025012400: supermarkets_6025012302
 + supermarkets_6025012400 <= 6
AdjacencyLimit_6025012400_6025010300: supermarkets_6025010300
 + supermarkets_6025012400 <= 6
AdjacencyLimit_6025012400_6025010800: supermarkets_6025010800
 + supermarkets_6025012400 <= 6
AdjacencyLimit_6025012400_6025940000: supermarkets_6025012400
 + supermarkets_6025940000 <= 6
LinkBinary_6025010101: - has_supermarket_6025010101 + supermarkets_6025010101
 <= 0
LinkBinary_6025010102: - has_supermarket_6025010102 + supermarkets_6025010102
 <= 0
LinkBinary_6025010200: - has_supermarket_6025010200 + supermarkets_6025010200
 <= 0
LinkBinary_6025010300: - has_supermarket_6025010300 + supermarkets_6025010300
 <= 0
LinkBinary_6025010400: - has_supermarket_6025010400 + supermarkets_6025010400
 <= 0
LinkBinary_6025010500: - has_supermarket_6025010500 + supermarkets_6025010500
 <= 0
LinkBinary_6025010600: - has_supermarket_6025010600 + supermarkets_6025010600
 <= 0
LinkBinary_6025010700: - has_supermarket_6025010700 + supermarkets_6025010700
 <= 0
LinkBinary_6025010800: - has_supermarket_6025010800 + supermarkets_6025010800
 <= 0
LinkBinary_6025010900: - has_supermarket_6025010900 + supermarkets_6025010900
 <= 0
LinkBinary_6025011000: - has_supermarket_6025011000 + supermarkets_6025011000
 <= 0
LinkBinary_6025011100: - has_supermarket_6025011100 + supermarkets_6025011100
 <= 0
LinkBinary_6025011201: - has_supermarket_6025011201 + supermarkets_6025011201
 <= 0
LinkBinary_6025011202: - has_supermarket_6025011202 + supermarkets_6025011202
 <= 0
LinkBinary_6025011300: - has_supermarket_6025011300 + supermarkets_6025011300
 <= 0
LinkBinary_6025011400: - has_supermarket_6025011400 + supermarkets_6025011400
 <= 0
LinkBinary_6025011500: - has_supermarket_6025011500 + supermarkets_6025011500
 <= 0
LinkBinary_6025011600: - has_supermarket_6025011600 + supermarkets_6025011600
 <= 0
LinkBinary_6025011700: - has_supermarket_6025011700 + supermarkets_6025011700
 <= 0
LinkBinary_6025011801: - has_supermarket_6025011801 + supermarkets_6025011801
 <= 0
LinkBinary_6025011802: - has_supermarket_6025011802 + supermarkets_6025011802
 <= 0
LinkBinary_6025011803: - has_supermarket_6025011803 + supermarkets_6025011803
 <= 0
LinkBinary_6025011900: - has_supermarket_6025011900 + supermarkets_6025011900
 <= 0
LinkBinary_6025012001: - has_supermarket_6025012001 + supermarkets_6025012001
 <= 0
LinkBinary_6025012002: - has_supermarket_6025012002 + supermarkets_6025012002
 <= 0
LinkBinary_6025012100: - has_supermarket_6025012100 + supermarkets_6025012100
 <= 0
LinkBinary_6025012200: - has_supermarket_6025012200 + supermarkets_6025012200
 <= 0
LinkBinary_6025012301: - has_supermarket_6025012301 + supermarkets_6025012301
 <= 0
LinkBinary_6025012302: - has_supermarket_6025012302 + supermarkets_6025012302
 <= 0
LinkBinary_6025012400: - has_supermarket_6025012400 + supermarkets_6025012400
 <= 0
LinkBinary_6025940000: - has_supermarket_6025940000 + supermarkets_6025940000
 <= 0
TotalSupermarketsLimit: supermarkets_6025010101 + supermarkets_6025010102
 + supermarkets_6025010200 + supermarkets_6025010300 + supermarkets_6025010400
 + supermarkets_6025010500 + supermarkets_6025010600 + supermarkets_6025010700
 + supermarkets_6025010800 + supermarkets_6025010900 + supermarkets_6025011000
 + supermarkets_6025011100 + supermarkets_6025011201 + supermarkets_6025011202
 + supermarkets_6025011300 + supermarkets_6025011400 + supermarkets_6025011500
 + supermarkets_6025011600 + supermarkets_6025011700 + supermarkets_6025011801
 + supermarkets_6025011802 + supermarkets_6025011803 + supermarkets_6025011900
 + supermarkets_6025012001 + supermarkets_6025012002 + supermarkets_6025012100
 + supermarkets_6025012200 + supermarkets_6025012301 + supermarkets_6025012302
 + supermarkets_6025012400 + supermarkets_6025940000 = 30
Binaries
has_supermarket_6025010101
has_supermarket_6025010102
has_supermarket_6025010200
has_supermarket_6025010300
has_supermarket_6025010400
has_supermarket_6025010500
has_supermarket_6025010600
has_supermarket_6025010700
has_supermarket_6025010800
has_supermarket_6025010900
has_supermarket_6025011000
has_supermarket_6025011100
has_supermarket_6025011201
has_supermarket_6025011202
has_supermarket_6025011300
has_supermarket_6025011400
has_supermarket_6025011500
has_supermarket_6025011600
has_supermarket_6025011700
has_supermarket_6025011801
has_supermarket_6025011802
has_supermarket_6025011803
has_supermarket_6025011900
has_supermarket_6025012001
has_supermarket_6025012002
has_supermarket_6025012100
has_supermarket_6025012200
has_supermarket_6025012301
has_supermarket_6025012302
has_supermarket_6025012400
has_supermarket_6025940000
supermarkets_6025010101
supermarkets_6025010102
supermarkets_6025010200
supermarkets_6025010300
supermarkets_6025010400
supermarkets_6025010500
supermarkets_6025010600
supermarkets_6025010700
supermarkets_6025010800
supermarkets_6025010900
supermarkets_6025011000
supermarkets_6025011100
supermarkets_6025011201
supermarkets_6025011202
supermarkets_6025011300
supermarkets_6025011400
supermarkets_6025011500
supermarkets_6025011600
supermarkets_6025011700
supermarkets_6025011801
supermarkets_6025011802
supermarkets_6025011803
supermarkets_6025011900
supermarkets_6025012001
supermarkets_6025012002
supermarkets_6025012100
supermarkets_6025012200
supermarkets_6025012301
supermarkets_6025012302
supermarkets_6025012400
supermarkets_6025940000
End
